Route #1: 147 29 3 38 113 17 177 172 170 126 46 74 196 175 34 154 63 14 112
Route #2: 137 43 134 51 77 202 59 6 2 44 47 106 66 140 169 101 37 145 40 95 156 89 122
Route #3: 166 73 78 31 93 148 30 130 69 181 195 85 135 124 35 109 52 115 141 20
Route #4: 45 99 120 68 98 5 107 162 33 25 165 90 164 183 21 70
Route #5: 8 16 197 201 7 103 11 200 105 87 76 161 13 55 143 194 116 80
Route #6: 82 151 203 94 121 167 49 42 72 139 117 146 108 18 142 129
Route #7: 188 92 27 132 91 191 65 123 102 57 39 88 19 136 174
Route #8: 179 15 155 193 128 22 1 10 75 67 152 12 60 171
Route #9: 127 158 56 114 58 53 144 176 125 79 118 178 23 24 84 97 41 184 192 81 32 48 62
Route #10: 198 160 187 180 96 182 26 190 157 186 189 119 110 50 173 204 138 168 163
Route #11: 131 9 159 153 111 86 199 36 28 185 104 61 4 100 54 150 83 71 133 149 64
cost: 75714
